17	4
12	11	14	10	
0	0	0	0	0	3	2	3	4	
3	0	7	0	0	3	5	6	8	
4	9	0	0	0	3	11	16	17	
4	0	10	0	0	2	9	14	
9	0	0	1	0	3	7	10	11	
250	0	0	10	0	3	12	17	17	
250	0	0	10	0	3	9	12	16	
75	0	0	0	1	3	15	17	17	
125	0	0	0	6	3	15	17	17	
150	0	0	8	0	3	16	17	17	
125	0	0	0	1	3	14	17	17	
50	0	0	0	3	3	13	17	17	
3	10	0	0	0	3	14	17	17	
3	0	0	0	3	3	15	17	17	
1	0	0	0	7	2	17	17	
7	0	8	0	0	3	17	17	17	
0	0	0	0	0	0	
